output ["link_x = ",showDzn(link_x),";\n","link_y = ",showDzn(link_y),";\n","link_length = ",showDzn(link_length),";\n","component_x = ",let {array [int] of string: X_INTRODUCED_4094_ = [_toString_COMPONENT(X_INTRODUCED_4092_,true,false) | X_INTRODUCED_4092_ in index_set(component_x)], array [int] of string: X_INTRODUCED_4095_ = [showDzn(component_x[X_INTRODUCED_4093_]) | X_INTRODUCED_4093_ in index_set(component_x)]} in (show_indexed(X_INTRODUCED_4094_,X_INTRODUCED_4095_)),";\n","component_y = ",let {array [int] of string: X_INTRODUCED_4098_ = [_toString_COMPONENT(X_INTRODUCED_4096_,true,false) | X_INTRODUCED_4096_ in index_set(component_y)], array [int] of string: X_INTRODUCED_4099_ = [showDzn(component_y[X_INTRODUCED_4097_]) | X_INTRODUCED_4097_ in index_set(component_y)]} in (show_indexed(X_INTRODUCED_4098_,X_INTRODUCED_4099_)),";\n","component_orientation = ",let {array [int] of string: X_INTRODUCED_4102_ = [_toString_COMPONENT(X_INTRODUCED_4100_,true,false) | X_INTRODUCED_4100_ in index_set(component_orientation)], array [int] of string: X_INTRODUCED_4103_ = [_toString_ORIENTATION(component_orientation[X_INTRODUCED_4101_],true,false) | X_INTRODUCED_4101_ in index_set(component_orientation)]} in (show_indexed(X_INTRODUCED_4102_,X_INTRODUCED_4103_)),";\n","parent = ",let {array [int] of string: X_INTRODUCED_4106_ = [_toString_PAD(X_INTRODUCED_4104_,true,false) | X_INTRODUCED_4104_ in index_set(parent)], array [int] of string: X_INTRODUCED_4107_ = [_toString_PAD(parent[X_INTRODUCED_4105_],true,false) | X_INTRODUCED_4105_ in index_set(parent)]} in (show_indexed(X_INTRODUCED_4106_,X_INTRODUCED_4107_)),";\n","distance = ",let {array [int] of string: X_INTRODUCED_4110_ = [_toString_PAD(X_INTRODUCED_4108_,true,false) | X_INTRODUCED_4108_ in index_set(distance)], array [int] of string: X_INTRODUCED_4111_ = [showDzn(distance[X_INTRODUCED_4109_]) | X_INTRODUCED_4109_ in index_set(distance)]} in (show_indexed(X_INTRODUCED_4110_,X_INTRODUCED_4111_)),";\n","connection = ",let {array [int] of string: X_INTRODUCED_4114_ = [_toString_PAD(X_INTRODUCED_4112_,true,false) | X_INTRODUCED_4112_ in index_set(connection)], array [int] of string: X_INTRODUCED_4115_ = [_toString_NET_OR_UNCONNECTED(connection[X_INTRODUCED_4113_],true,false) | X_INTRODUCED_4113_ in index_set(connection)]} in (show_indexed(X_INTRODUCED_4114_,X_INTRODUCED_4115_)),";\n","pad_x = ",let {array [int] of string: X_INTRODUCED_4118_ = [_toString_PAD(X_INTRODUCED_4116_,true,false) | X_INTRODUCED_4116_ in index_set(pad_x)], array [int] of string: X_INTRODUCED_4119_ = [showDzn(pad_x[X_INTRODUCED_4117_]) | X_INTRODUCED_4117_ in index_set(pad_x)]} in (show_indexed(X_INTRODUCED_4118_,X_INTRODUCED_4119_)),";\n","pad_y = ",let {array [int] of string: X_INTRODUCED_4122_ = [_toString_PAD(X_INTRODUCED_4120_,true,false) | X_INTRODUCED_4120_ in index_set(pad_y)], array [int] of string: X_INTRODUCED_4123_ = [showDzn(pad_y[X_INTRODUCED_4121_]) | X_INTRODUCED_4121_ in index_set(pad_y)]} in (show_indexed(X_INTRODUCED_4122_,X_INTRODUCED_4123_)),";\n","pad_xy = ",let {array [int] of string: X_INTRODUCED_4126_ = [_toString_PAD(X_INTRODUCED_4124_,true,false) | X_INTRODUCED_4124_ in index_set(pad_xy)], array [int] of string: X_INTRODUCED_4127_ = [showDzn(pad_xy[X_INTRODUCED_4125_]) | X_INTRODUCED_4125_ in index_set(pad_xy)]} in (show_indexed(X_INTRODUCED_4126_,X_INTRODUCED_4127_)),";\n","board_w = ",showDzn(board_w),";\n","board_h = ",showDzn(board_h),";\n"];
function string : _toString_PAD(opt PAD: X_INTRODUCED_97_,bool: X_INTRODUCED_98_,bool: X_INTRODUCED_99_) = if absent(X_INTRODUCED_97_) then if X_INTRODUCED_99_ then "null" else "<>" endif else if deopt(X_INTRODUCED_97_)<=1 then _toString_0_PAD(X_INTRODUCED_97_,X_INTRODUCED_98_,X_INTRODUCED_99_) elseif deopt(X_INTRODUCED_97_)<=1+card(PIN) then _toString_1_PAD(X_INTRODUCED_97_,X_INTRODUCED_98_,X_INTRODUCED_99_) elseif deopt(X_INTRODUCED_97_)<=1+card(PIN)+card(LINKS) then _toString_2_PAD(X_INTRODUCED_97_,X_INTRODUCED_98_,X_INTRODUCED_99_) else _toString_3_PAD(X_INTRODUCED_97_,X_INTRODUCED_98_,X_INTRODUCED_99_) endif endif;
function string : _toString_2_PAD(opt PAD: X_INTRODUCED_71_,bool: X_INTRODUCED_72_,bool: X_INTRODUCED_73_) = if absent(X_INTRODUCED_71_) then if X_INTRODUCED_73_ then "null" else "<>" endif else (if X_INTRODUCED_73_ then "{ \"c\" : \"LinkStart\", \"e\" : " else if X_INTRODUCED_72_ then showDznId("LinkStart") else "LinkStart" endif++"(" endif++'_15@_toString_LINKS'('LinkStart⁻¹'(X_INTRODUCED_71_),X_INTRODUCED_72_,X_INTRODUCED_73_))++if X_INTRODUCED_73_ then "}" else ")" endif endif;
function string : '_15@_toString_LINKS'(opt int: X_INTRODUCED_219_,bool: X_INTRODUCED_220_,bool: X_INTRODUCED_221_) = show(X_INTRODUCED_219_);
function opt LINKS : 'LinkStart⁻¹'(opt PAD: X_INTRODUCED_58_) = if occurs(X_INTRODUCED_58_) then 'LinkStart⁻¹'(deopt(X_INTRODUCED_58_)) else to_enum(LINKS,<>) endif;
function LINKS : 'LinkStart⁻¹'(PAD: X_INTRODUCED_56_) = to_enum(LINKS,X_INTRODUCED_56_-_constrMin_2_PAD);
function string : _toString_1_PAD(opt PAD: X_INTRODUCED_48_,bool: X_INTRODUCED_49_,bool: X_INTRODUCED_50_) = if absent(X_INTRODUCED_48_) then if X_INTRODUCED_50_ then "null" else "<>" endif else (if X_INTRODUCED_50_ then "{ \"c\" : \"Pin\", \"e\" : " else if X_INTRODUCED_49_ then showDznId("Pin") else "Pin" endif++"(" endif++_toString_PIN('Pin⁻¹'(X_INTRODUCED_48_),X_INTRODUCED_49_,X_INTRODUCED_50_))++if X_INTRODUCED_50_ then "}" else ")" endif endif;
function string : _toString_PIN(opt int: X_INTRODUCED_187_,bool: X_INTRODUCED_188_,bool: X_INTRODUCED_189_) = if occurs(X_INTRODUCED_187_) then if X_INTRODUCED_188_ then showDznId(_enum_to_string_0_PIN[deopt(X_INTRODUCED_187_)]) elseif X_INTRODUCED_189_ then ("{\"e\":"++show(_enum_to_string_0_PIN[deopt(X_INTRODUCED_187_)]))++"}" else _enum_to_string_0_PIN[deopt(X_INTRODUCED_187_)] endif else if X_INTRODUCED_189_ then "null" else "<>" endif endif;
function opt PIN : 'Pin⁻¹'(opt PAD: X_INTRODUCED_35_) = if occurs(X_INTRODUCED_35_) then 'Pin⁻¹'(deopt(X_INTRODUCED_35_)) else to_enum(PIN,<>) endif;
function PIN : 'Pin⁻¹'(PAD: X_INTRODUCED_33_) = to_enum(PIN,X_INTRODUCED_33_-_constrMin_1_PAD);
function string : _toString_0_PAD(opt int: X_INTRODUCED_25_,bool: X_INTRODUCED_26_,bool: X_INTRODUCED_27_) = if occurs(X_INTRODUCED_25_) then if X_INTRODUCED_26_ then showDznId(_enum_to_string_0_PAD[deopt(X_INTRODUCED_25_)]) elseif X_INTRODUCED_27_ then ("{\"e\":"++show(_enum_to_string_0_PAD[deopt(X_INTRODUCED_25_)]))++"}" else _enum_to_string_0_PAD[deopt(X_INTRODUCED_25_)] endif else if X_INTRODUCED_27_ then "null" else "<>" endif endif;
function string : _toString_3_PAD(opt PAD: X_INTRODUCED_94_,bool: X_INTRODUCED_95_,bool: X_INTRODUCED_96_) = if absent(X_INTRODUCED_94_) then if X_INTRODUCED_96_ then "null" else "<>" endif else (if X_INTRODUCED_96_ then "{ \"c\" : \"LinkEnd\", \"e\" : " else if X_INTRODUCED_95_ then showDznId("LinkEnd") else "LinkEnd" endif++"(" endif++'_15@_toString_LINKS'('LinkEnd⁻¹'(X_INTRODUCED_94_),X_INTRODUCED_95_,X_INTRODUCED_96_))++if X_INTRODUCED_96_ then "}" else ")" endif endif;
function opt LINKS : 'LinkEnd⁻¹'(opt PAD: X_INTRODUCED_81_) = if occurs(X_INTRODUCED_81_) then 'LinkEnd⁻¹'(deopt(X_INTRODUCED_81_)) else to_enum(LINKS,<>) endif;
function LINKS : 'LinkEnd⁻¹'(PAD: X_INTRODUCED_79_) = to_enum(LINKS,X_INTRODUCED_79_-_constrMin_3_PAD);
function string : _toString_NET_OR_UNCONNECTED(opt NET_OR_UNCONNECTED: X_INTRODUCED_139_,bool: X_INTRODUCED_140_,bool: X_INTRODUCED_141_) = if absent(X_INTRODUCED_139_) then if X_INTRODUCED_141_ then "null" else "<>" endif else if deopt(X_INTRODUCED_139_)<=1 then _toString_0_NET_OR_UNCONNECTED(X_INTRODUCED_139_,X_INTRODUCED_140_,X_INTRODUCED_141_) else _toString_1_NET_OR_UNCONNECTED(X_INTRODUCED_139_,X_INTRODUCED_140_,X_INTRODUCED_141_) endif endif;
function string : _toString_0_NET_OR_UNCONNECTED(opt int: X_INTRODUCED_113_,bool: X_INTRODUCED_114_,bool: X_INTRODUCED_115_) = if occurs(X_INTRODUCED_113_) then if X_INTRODUCED_114_ then showDznId(_enum_to_string_0_NET_OR_UNCONNECTED[deopt(X_INTRODUCED_113_)]) elseif X_INTRODUCED_115_ then ("{\"e\":"++show(_enum_to_string_0_NET_OR_UNCONNECTED[deopt(X_INTRODUCED_113_)]))++"}" else _enum_to_string_0_NET_OR_UNCONNECTED[deopt(X_INTRODUCED_113_)] endif else if X_INTRODUCED_115_ then "null" else "<>" endif endif;
function string : _toString_1_NET_OR_UNCONNECTED(opt NET_OR_UNCONNECTED: X_INTRODUCED_136_,bool: X_INTRODUCED_137_,bool: X_INTRODUCED_138_) = if absent(X_INTRODUCED_136_) then if X_INTRODUCED_138_ then "null" else "<>" endif else (if X_INTRODUCED_138_ then "{ \"c\" : \"Net\", \"e\" : " else if X_INTRODUCED_137_ then showDznId("Net") else "Net" endif++"(" endif++_toString_NET('Net⁻¹'(X_INTRODUCED_136_),X_INTRODUCED_137_,X_INTRODUCED_138_))++if X_INTRODUCED_138_ then "}" else ")" endif endif;
function string : _toString_NET(opt int: X_INTRODUCED_203_,bool: X_INTRODUCED_204_,bool: X_INTRODUCED_205_) = if occurs(X_INTRODUCED_203_) then if X_INTRODUCED_204_ then showDznId(_enum_to_string_0_NET[deopt(X_INTRODUCED_203_)]) elseif X_INTRODUCED_205_ then ("{\"e\":"++show(_enum_to_string_0_NET[deopt(X_INTRODUCED_203_)]))++"}" else _enum_to_string_0_NET[deopt(X_INTRODUCED_203_)] endif else if X_INTRODUCED_205_ then "null" else "<>" endif endif;
function opt NET : 'Net⁻¹'(opt NET_OR_UNCONNECTED: X_INTRODUCED_123_) = if occurs(X_INTRODUCED_123_) then 'Net⁻¹'(deopt(X_INTRODUCED_123_)) else to_enum(NET,<>) endif;
function NET : 'Net⁻¹'(NET_OR_UNCONNECTED: X_INTRODUCED_121_) = to_enum(NET,X_INTRODUCED_121_-_constrMin_1_NET_OR_UNCONNECTED);
function string : _toString_ORIENTATION(opt int: X_INTRODUCED_9_,bool: X_INTRODUCED_10_,bool: X_INTRODUCED_11_) = if occurs(X_INTRODUCED_9_) then if X_INTRODUCED_10_ then showDznId(_enum_to_string_0_ORIENTATION[deopt(X_INTRODUCED_9_)]) elseif X_INTRODUCED_11_ then ("{\"e\":"++show(_enum_to_string_0_ORIENTATION[deopt(X_INTRODUCED_9_)]))++"}" else _enum_to_string_0_ORIENTATION[deopt(X_INTRODUCED_9_)] endif else if X_INTRODUCED_11_ then "null" else "<>" endif endif;
function string : _toString_COMPONENT(opt int: X_INTRODUCED_171_,bool: X_INTRODUCED_172_,bool: X_INTRODUCED_173_) = if occurs(X_INTRODUCED_171_) then if X_INTRODUCED_172_ then showDznId(_enum_to_string_0_COMPONENT[deopt(X_INTRODUCED_171_)]) elseif X_INTRODUCED_173_ then ("{\"e\":"++show(_enum_to_string_0_COMPONENT[deopt(X_INTRODUCED_171_)]))++"}" else _enum_to_string_0_COMPONENT[deopt(X_INTRODUCED_171_)] endif else if X_INTRODUCED_173_ then "null" else "<>" endif endif;
int: board_h;
int: board_w;
int: full_w = 20;
set of int: PAD = 1..39;
array [PAD] of int: pad_y;
array [PAD] of int: pad_x;
array [PAD] of int: pad_xy = [(full_w+1)*(pad_y[p]+1)+pad_x[p] | p in PAD];
int: _constrMin_2_PAD = 25;
set of int: LINKS = 1..7;
set of int: PIN = 1..24;
array [1..24] of string: _enum_to_string_0_PIN = ["PIN_0_0","PIN_0_1","PIN_1_0","PIN_1_1","PIN_2_0","PIN_2_1","PIN_2_2","PIN_2_3","PIN_2_4","PIN_2_5","PIN_2_6","PIN_2_7","PIN_3_0","PIN_3_1","PIN_4_0","PIN_4_1","PIN_5_0","PIN_5_1","PIN_5_2","PIN_5_3","PIN_5_4","PIN_5_5","PIN_5_6","PIN_5_7"];
int: _constrMin_1_PAD = 1;
array [1..1] of string: _enum_to_string_0_PAD = ["Dummy"];
int: _constrMin_3_PAD = 32;
array [1..1] of string: _enum_to_string_0_NET_OR_UNCONNECTED = ["Unconnected"];
array [1..24] of string: _enum_to_string_0_NET = ["NET_0","NET_1","NET_2","NET_3","NET_4","NET_5","NET_6","NET_7","NET_8","NET_9","NET_10","NET_11","NET_12","NET_13","NET_14","NET_15","NET_16","NET_17","NET_18","NET_19","NET_20","NET_21","NET_22","NET_23"];
int: _constrMin_1_NET_OR_UNCONNECTED = 1;
set of int: NET = 1..24;
set of int: NET_OR_UNCONNECTED = 1..25;
array [PAD] of int: connection;
array [PAD] of int: distance;
array [PAD] of int: parent;
array [1..4] of string: _enum_to_string_0_ORIENTATION = ["Upright","Clockwise","UpsideDown","Anticlockwise"];
set of int: COMPONENT = 1..6;
array [COMPONENT] of int: component_orientation;
array [1..6] of string: _enum_to_string_0_COMPONENT = ["COMPONENT_0","COMPONENT_1","COMPONENT_2","COMPONENT_3","COMPONENT_4","COMPONENT_5"];
array [COMPONENT] of int: component_y;
array [COMPONENT] of int: component_x;
array [LINKS] of int: link_length;
array [LINKS] of int: link_y;
array [LINKS] of int: link_x;
